p cnf 7230 17
-6393 -6517 6618 0
-428 -434 -6471 6623 0
428 -6624 0
6393 -6618 0
-4700 -6513 -6621 0
-4698 -6511 -6619 0
4700 -6622 0
4698 -6620 0
434 -6624 0
-6623 6624 0
6621 6622 0
6619 6620 0
6513 -6622 0
6511 -6620 0
6471 -6624 0
6617 6618 0
-6617 -6618 0
